(set-logic ALL)
(set-option :produce-models true)
(declare-sort BoundSet 0)
(declare-sort UnboundSet 0)
(set-option :finite-model-find true)
(declare-fun DiedPrematurelyFrom (BoundSet BoundSet) Bool)
(declare-fun OccurredIn (BoundSet BoundSet) Bool)
(declare-fun AccountsForPercentage (BoundSet BoundSet) Bool)
(declare-fun IsMajorCauseOf (BoundSet BoundSet) Bool)
(declare-fun OccursWorldwide (BoundSet BoundSet) Bool)
(assert (not (=> (exists ((a BoundSet)) (exists ((c BoundSet)) (exists ((b BoundSet)) (and (DiedPrematurelyFrom a b) (and (OccurredIn b c) (AccountsForPercentage b a)))))) (exists ((a BoundSet)) (exists ((e BoundSet)) (exists ((d BoundSet)) (and (IsMajorCauseOf a d) (OccursWorldwide d e))))))))
(check-sat)
(get-model)